experiments/02_solvers_scalability/solutions/scalability/imx8a/IN_5_9.json-ILP-IDLE-MAX.out.log
Using license file /home/benedond/gurobi.lic
Using gurobi.env file
Set parameter Threads to value 1
Academic license - for non-commercial use only
Changed value of parameter TimeLimit to 300.0
   Prev: inf  Min: 0.0  Max: inf  Default: inf
Gurobi Optimizer version 9.0.1 build v9.0.1rc0 (linux64)
Optimize a model with 70 rows, 55 columns and 213 nonzeros
Model fingerprint: 0x8bc5770b
Variable types: 5 continuous, 50 integer (50 binary)
Coefficient statistics:
  Matrix range     [1e+00, 5e+02]
  Objective range  [9e+01, 5e+02]
  Bounds range     [1e+00, 1e+00]
  RHS range        [1e+00, 3e+02]
Presolve removed 70 rows and 55 columns
Presolve time: 0.00s
Presolve: All rows and columns removed

Explored 0 nodes (0 simplex iterations) in 0.00 seconds
Thread count was 1 (of 4 available processors)

Solution count 1: 1092 

Optimal solution found (tolerance 1.00e-04)
Best objective 1.092000000000e+03, best bound 1.092000000000e+03, gap 0.0000%
